DIMENSION: 100
69
57
72
76
80
78
31
99
45
33
68
14
65
86
96
16
63
54
91
77
43
71
4
44
93
60
53
5
3
83
40
6
59
85
18
25
20
10
9
55
26
87
92
48
2
100
51
37
19
62
35
30
95
56
21
47
12
28
82
64
39
73
15
84
41
27
24
88
79
13
1
50
81
34
38
66
8
52
46
61
74
7
75
67
36
29
58
22
42
23
11
89
90
17
94
32
97
98
49
